clingo version 5.4.0
Reading from merger/Tom/merge.lp ...
Solving...
Answer: 1
occurs(object(robot,1),action(move,(1,0)),9). occurs(object(robot,1),action(move,(1,0)),10). occurs(object(robot,1),action(move,(1,0)),11). occurs(object(robot,1),action(move,(1,0)),12). occurs(object(robot,1),action(move,(1,0)),13). occurs(object(robot,1),action(move,(1,0)),15). occurs(object(robot,1),action(move,(1,0)),16). occurs(object(robot,2),action(move,(-1,0)),2). occurs(object(robot,2),action(move,(-1,0)),3). occurs(object(robot,2),action(move,(-1,0)),4). occurs(object(robot,2),action(move,(-1,0)),5). occurs(object(robot,2),action(move,(-1,0)),6). occurs(object(robot,2),action(move,(-1,0)),7). occurs(object(robot,2),action(move,(-1,0)),8). occurs(object(robot,1),action(move,(0,1)),6). occurs(object(robot,1),action(move,(0,1)),8). occurs(object(robot,2),action(move,(0,1)),10). occurs(object(robot,1),action(move,(0,-1)),7). occurs(object(robot,2),action(move,(0,1)),1). occurs(object(robot,2),action(move,(0,-1)),9).
SATISFIABLE

Models       : 1+
Calls        : 1
Time         : 0.153s (Solving: 0.01s 1st Model: 0.01s Unsat: 0.00s)
CPU Time     : 0.152s
